5 4 3 2 1 0 573 572 571 468 469 470 471 472 473 474 570 569 568 567 566 565 564 563 562 561 560 549 548 545 546 547 544 543 541 542 107 108 109 110 111 112 161 160 162 168 169 171 170 175 172 173 174 176 177 178 186 188 187 540 538 539 537 536 535 534 487 486 485 484 483 480 479 478 477 476 475 481 482 493 525 524 494 495 518 519 498 497 496 464 465 467 466 463 462 461 460 459 458 457 456 455 454 439 442 443 444 445 446 447 448 449 450 441 440 453 452 499 500 501 502 503 504 505 308 309 310 311 451 312 313 316 314 315 374 373 322 323 324 325 326 327 328 329 366 367 365 368 369 370 372 371 396 395 375 376 377 378 379 380 381 431 432 433 434 435 436 438 437 430 429 428 427 426 424 425 382 386 387 388 389 390 392 391 393 394 397 398 399 407 406 405 408 409 385 384 383 423 422 421 420 419 417 418 410 411 412 356 402 403 404 400 401 360 359 358 357 355 354 353 413 414 416 415 352 351 350 349 348 347 362 361 363 364 346 345 344 343 342 341 340 330 331 332 333 339 338 337 336 335 334 283 284 285 286 287 280 281 282 279 278 277 276 288 289 290 275 274 273 272 269 292 291 295 296 294 293 270 268 271 267 297 298 266 265 264 263 262 261 260 259 258 299 300 257 256 255 253 254 252 251 250 249 248 241 242 243 244 245 247 246 238 239 240 301 302 303 304 306 318 319 320 321 317 305 307 508 507 506 516 515 514 517 520 521 522 523 492 491 490 529 528 526 527 512 513 511 510 509 237 236 235 234 232 233 530 531 489 488 533 532 231 230 229 228 227 189 225 226 190 191 192 193 219 218 220 221 222 224 223 217 216 215 214 213 212 211 210 209 194 195 196 197 205 206 207 208 203 204 202 201 200 199 198 184 185 183 182 179 181 180 166 167 163 164 165 154 155 159 156 153 157 158 145 146 144 143 142 147 148 152 149 150 151 141 140 139 136 135 134 137 138 129 130 133 132 131 113 114 115 116 128 127 126 125 124 69 70 68 67 66 65 72 71 123 122 121 117 106 105 104 103 102 101 100 99 98 97 96 95 118 120 119 73 74 75 76 77 88 78 80 79 62 64 63 61 60 59 81 82 57 58 56 55 83 53 54 52 50 51 84 85 86 87 89 94 93 90 92 91 555 45 46 47 48 49 43 44 42 39 40 41 556 554 553 552 551 550 559 558 557 38 37 36 35 34 33 32 30 31 29 28 27 26 25 24 21 22 23 12 13 14 15 16 20 19 18 17 11 10 9 8 7 6